src/RACER/swarm_exploration/utils/lkh_mtsp_solver/resource/amtsp_1.atsp
NAME : amtsp
TYPE : ATSP
DIMENSION : 7
EDGE_WEIGHT_TYPE : EXPLICIT
EDGE_WEIGHT_FORMAT : FULL_MATRIX
EDGE_WEIGHT_SECTION
100000 -100000 100000 100000 100000 100000 100000 
100000 100000 469 259 567 458 100000 
0 0 100000 166 65 240 266 
0 0 166 100000 228 157 424 
0 0 65 228 100000 296 218 
0 0 240 157 296 100000 430 
-100000 100000 266 424 218 430 100000 
