src/RACER/swarm_exploration/utils/lkh_mtsp_solver/resource/amtsp_1.tour
NAME : amtsp.-199245.tour
COMMENT : Length = -199245
COMMENT : Found by LKH [Keld Helsgaun] Thu Apr 13 22:40:33 2023
TYPE : TOUR
DIMENSION : 4
TOUR_SECTION
1
2
3
4
-1
EOF
